language Essence 1.3

letting pos be
        function((1, 1) --> 1, (1, 2) --> 3, (1, 3) --> 5, (2, 1) --> 21, (2, 2) --> 24, (2, 3) --> 27, (3, 1) --> 2,
                 (3, 2) --> 6, (3, 3) --> 10, (4, 1) --> 7, (4, 2) --> 12, (4, 3) --> 17, (5, 1) --> 13, (5, 2) --> 19,
                 (5, 3) --> 25, (6, 1) --> 9, (6, 2) --> 16, (6, 3) --> 23, (7, 1) --> 14, (7, 2) --> 22, (7, 3) --> 30,
                 (8, 1) --> 11, (8, 2) --> 20, (8, 3) --> 29, (9, 1) --> 8, (9, 2) --> 18, (9, 3) --> 28, (10, 1) --> 4,
                 (10, 2) --> 15, (10, 3) --> 26)
letting seq be sequence(1, 3, 1, 10, 1, 3, 4, 9, 6, 3, 8, 4, 5, 7, 10, 6, 4, 9, 5, 8, 2, 7, 6, 2, 5, 10, 2, 9, 8, 7)
